file-name,time_till_loop,total_elapsed_time,minCost,correctness
../inputs/selected-inputs/P-n101-k4.vrp,0.000000,0.000622,1653.924109,VALID
Route #1: 68 29 24 80 12
Route #2: 76 3 77 28
Route #3: 83 45
Route #4: 88 11 64 62
Route #5: 69 30 70
Route #6: 27 32 90 63 10 31
Route #7: 89 60 84 17 5
Route #8: 6 61 86
Route #9: 18 8 46
Route #10: 52 7 48 47 36 82
Route #11: 13 42 43 87
Route #12: 57 15
Route #13: 1 66 20
Route #14: 95 92 37 100 38 14 97
Route #15: 58 2 41
Route #16: 51 71 65 35 9 50
Route #17: 56 23 75 72 21
Route #18: 19 49
Route #19: 79 78 34 81 33
Route #20: 4 67 39
Route #21: 53 40 73 74 22
Route #22: 26 25 55 54
Route #23: 94 59 98 91 44 16 85 93 99 96
Cost 1653.924109
